Route 1: 0 59 35 62 81 37 57 15 94 18 74 0
Route 2: 0 47 27 54 88 23 19 4 98 67 65 46 0
Route 3: 0 58 87 79 2 82 92 61 96 0
Route 4: 0 75 9 66 36 51 60 12 33 99 0
Route 5: 0 84 39 70 100 21 6 56 49 0
Route 6: 0 17 83 48 91 77 68 45 71 55 26 72 0
Route 7: 0 34 24 69 97 80 22 32 28 7 52 0
Route 8: 0 50 53 44 5 42 43 20 90 76 86 1 30 0
Route 9: 0 93 11 8 25 63 29 31 40 16 0
Route 10: 0 14 10 3 73 89 38 41 0
Route 11: 0 85 78 95 13 64 0
